FILENAME:   ../instances_new/flowersnark/flowersnark9_3.cip
SETTINGS:   settings_final_peek_relabel_respect
TIMELIMIT:  7200
OUTPUTNAME: final_flowersnark__settings_final_peek_relabel_respect__4__
BINNAME:    bin/sbcs.linux.x86_64.gnu.opt.cpx
BASENAME:   flowersnark9_3.cip
SEED:       4
@01 ../instances_new/flowersnark/flowersnark9_3.cip ===========
@02 flowersnark9_3.cip
@03 1668021579
SCIP version 8.0.2 [precision: 8 byte] [memory: block] [mode: optimized] [LP solver: CPLEX 20.1.0.0] [GitHash: 5f0473c]
Copyright (C) 2002-2022 Konrad-Zuse-Zentrum fuer Informationstechnik Berlin (ZIB)

Symretope propagation methods - (c) Jasper van Doornmalen, Christopher Hojny.
[GitHash: 2fd0484]

reading parameter file <../settings/settings_final_peek_relabel_respect.set> ...

Changed settings:
limits/time = 7200
misc/usesymmetry = 1
randomization/randomseedshift = 4
constraints/orbisack/sepafreq = -1
constraints/symresack/sepafreq = -1
propagating/symmetry/addsymresacks = TRUE
propagating/symmetry/detectsubgroups = FALSE
propagating/symmetry/relabelsymretopes = 3
propagating/symmetry/ofsymcomptiming = 0
constraints/symretope/sepafreq = -1


solving problem ...

original problem has 162 variables (162 bin, 0 int, 0 impl, 0 cont) and 162 constraints
presolving:
(round 1, exhaustive) 0 del vars, 0 del conss, 0 add conss, 0 chg bounds, 0 chg sides, 0 chg coeffs, 162 upgd conss, 0 impls, 162 clqs
   (0.0s) probing: 51/162 (31.5%) - 0 fixings, 0 aggregations, 0 implications, 0 bound changes
   (0.0s) probing aborted: 50/50 successive totally useless probings
   (0.0s) symmetry computation started: requiring (bin +, int +, cont +), (fixed: bin -, int -, cont -)
   (0.0s) symmetry computation finished: 5 generators found (max: 1500, log10 of symmetry group size: 2.3)
(round 2, exhaustive) 7 del vars, 0 del conss, 5 add conss, 0 chg bounds, 0 chg sides, 0 chg coeffs, 162 upgd conss, 0 impls, 159 clqs
(round 3, fast)       16 del vars, 7 del conss, 5 add conss, 0 chg bounds, 0 chg sides, 0 chg coeffs, 162 upgd conss, 0 impls, 155 clqs
(round 4, medium)     17 del vars, 7 del conss, 5 add conss, 0 chg bounds, 0 chg sides, 0 chg coeffs, 162 upgd conss, 0 impls, 155 clqs
(round 5, fast)       18 del vars, 8 del conss, 5 add conss, 0 chg bounds, 0 chg sides, 0 chg coeffs, 162 upgd conss, 0 impls, 154 clqs
   (0.0s) probing cycle finished: starting next cycle
(round 6, exhaustive) 25 del vars, 8 del conss, 5 add conss, 0 chg bounds, 0 chg sides, 0 chg coeffs, 162 upgd conss, 0 impls, 275 clqs
(round 7, fast)       25 del vars, 18 del conss, 5 add conss, 0 chg bounds, 1 chg sides, 0 chg coeffs, 162 upgd conss, 0 impls, 275 clqs
   (0.0s) probing cycle finished: starting next cycle
(round 8, exhaustive) 26 del vars, 18 del conss, 5 add conss, 0 chg bounds, 1 chg sides, 0 chg coeffs, 162 upgd conss, 0 impls, 288 clqs
(round 9, fast)       26 del vars, 19 del conss, 5 add conss, 0 chg bounds, 1 chg sides, 0 chg coeffs, 162 upgd conss, 0 impls, 288 clqs
   (0.0s) probing: 89/142 (62.7%) - 0 fixings, 8 aggregations, 153 implications, 0 bound changes
   (0.0s) probing aborted: 50/50 successive totally useless probings
presolving (10 rounds: 10 fast, 6 medium, 5 exhaustive):
 26 deleted vars, 19 deleted constraints, 5 added constraints, 0 tightened bounds, 0 added holes, 1 changed sides, 0 changed coefficients
 0 implications, 288 cliques
presolved problem has 141 variables (141 bin, 0 int, 0 impl, 0 cont) and 148 constraints
    143 constraints of type <setppc>
      2 constraints of type <orbisack>
      2 constraints of type <orbitope>
      1 constraints of type <symretope>
transformed objective value is always integral (scale: 1)
Presolving Time: 0.01

 time | node  | left  |LP iter|LP it/n|mem/heur|mdpt |vars |cons |rows |cuts |sepa|confs|strbr|  dualbound   | primalbound  |  gap   | compl. 
  0.0s|     1 |     0 |   109 |     - |  2986k |   0 | 141 | 225 | 144 |   0 |  0 |  76 |   0 | 0.000000e+00 |      --      |    Inf | unknown
  0.1s|     1 |     0 |   274 |     - |  3338k |   0 | 141 | 425 | 142 |   0 |  1 |  77 |   0 | 0.000000e+00 |      --      |    Inf | unknown
  0.1s|     1 |     0 |   337 |     - |  3748k |   0 | 141 | 428 | 144 |   2 |  2 |  82 |   0 | 0.000000e+00 |      --      |    Inf | unknown
  0.1s|     1 |     0 |   373 |     - |  4389k |   0 | 141 | 430 | 145 |   3 |  3 |  84 |   0 | 0.000000e+00 |      --      |    Inf | unknown
  0.1s|     1 |     0 |   459 |     - |  5121k |   0 | 141 | 432 | 154 |  12 |  4 |  86 |   0 | 0.000000e+00 |      --      |    Inf | unknown
  0.1s|     1 |     0 |   505 |     - |  5480k |   0 | 141 | 435 | 155 |  13 |  5 |  89 |   0 | 0.000000e+00 |      --      |    Inf | unknown
  0.1s|     1 |     0 |   563 |     - |  5588k |   0 | 141 | 437 | 159 |  17 |  6 |  91 |   0 | 0.000000e+00 |      --      |    Inf | unknown
  0.1s|     1 |     0 |   604 |     - |  6554k |   0 | 141 | 438 | 160 |  18 |  7 |  92 |   0 | 0.000000e+00 |      --      |    Inf | unknown
  0.2s|     1 |     0 |   675 |     - |  7220k |   0 | 141 | 440 | 165 |  23 |  8 |  94 |   0 | 0.000000e+00 |      --      |    Inf | unknown
  0.2s|     1 |     0 |   734 |     - |  8376k |   0 | 141 | 441 | 167 |  25 |  9 |  95 |   0 | 0.000000e+00 |      --      |    Inf | unknown
  0.2s|     1 |     0 |   801 |     - |  8395k |   0 | 141 | 442 | 170 |  28 | 10 |  96 |   0 | 0.000000e+00 |      --      |    Inf | unknown
  0.2s|     1 |     0 |   854 |     - |  8414k |   0 | 141 | 444 | 173 |  31 | 11 |  98 |   0 | 0.000000e+00 |      --      |    Inf | unknown
  0.2s|     1 |     0 |   860 |     - |  8433k |   0 | 141 | 446 | 171 |  32 | 12 | 100 |   0 | 0.000000e+00 |      --      |    Inf | unknown
  0.2s|     1 |     0 |   898 |     - |  8481k |   0 | 141 | 448 | 172 |  33 | 13 | 102 |   0 | 0.000000e+00 |      --      |    Inf | unknown
  0.2s|     1 |     0 |   954 |     - |  8498k |   0 | 141 | 450 | 173 |  34 | 14 | 104 |   0 | 0.000000e+00 |      --      |    Inf | unknown
 time | node  | left  |LP iter|LP it/n|mem/heur|mdpt |vars |cons |rows |cuts |sepa|confs|strbr|  dualbound   | primalbound  |  gap   | compl. 
  0.2s|     1 |     0 |  1013 |     - |  8498k |   0 | 141 | 451 | 174 |  35 | 15 | 105 |   0 | 0.000000e+00 |      --      |    Inf | unknown
  0.3s|     1 |     0 |  1234 |     - |  8526k |   0 | 141 | 456 | 174 |  35 | 15 | 114 |  11 | 0.000000e+00 |      --      |    Inf | unknown
  0.3s|     1 |     0 |  1302 |     - |  8672k |   0 | 141 | 458 | 177 |  38 | 16 | 117 |  11 | 0.000000e+00 |      --      |    Inf | unknown
  0.3s|     1 |     2 |  1302 |     - |  8675k |   0 | 141 | 459 | 177 |  38 | 17 | 118 |  22 | 0.000000e+00 |      --      |    Inf | unknown
(run 1, node 1) restarting after 9 global fixings of integer variables

(restart) converted 33 cuts from the global cut pool into linear constraints

presolving:
(round 1, fast)       17 del vars, 39 del conss, 0 add conss, 0 chg bounds, 0 chg sides, 39 chg coeffs, 0 upgd conss, 0 impls, 185 clqs
(round 2, fast)       17 del vars, 42 del conss, 0 add conss, 0 chg bounds, 0 chg sides, 39 chg coeffs, 0 upgd conss, 0 impls, 185 clqs
(round 3, medium)     20 del vars, 42 del conss, 0 add conss, 0 chg bounds, 0 chg sides, 39 chg coeffs, 0 upgd conss, 0 impls, 173 clqs
(round 4, fast)       22 del vars, 60 del conss, 0 add conss, 0 chg bounds, 4 chg sides, 47 chg coeffs, 0 upgd conss, 0 impls, 172 clqs
(round 5, exhaustive) 22 del vars, 62 del conss, 1 add conss, 0 chg bounds, 4 chg sides, 47 chg coeffs, 0 upgd conss, 0 impls, 172 clqs
(round 6, exhaustive) 22 del vars, 63 del conss, 1 add conss, 0 chg bounds, 4 chg sides, 47 chg coeffs, 0 upgd conss, 0 impls, 172 clqs
(round 7, exhaustive) 22 del vars, 77 del conss, 1 add conss, 0 chg bounds, 17 chg sides, 47 chg coeffs, 0 upgd conss, 0 impls, 172 clqs
(round 8, exhaustive) 22 del vars, 77 del conss, 1 add conss, 0 chg bounds, 17 chg sides, 47 chg coeffs, 194 upgd conss, 0 impls, 172 clqs
(round 9, fast)       22 del vars, 78 del conss, 1 add conss, 0 chg bounds, 17 chg sides, 47 chg coeffs, 194 upgd conss, 0 impls, 172 clqs
(round 10, medium)     22 del vars, 80 del conss, 3 add conss, 0 chg bounds, 20 chg sides, 53 chg coeffs, 194 upgd conss, 0 impls, 172 clqs
(round 11, exhaustive) 22 del vars, 92 del conss, 9 add conss, 0 chg bounds, 20 chg sides, 53 chg coeffs, 194 upgd conss, 0 impls, 172 clqs
(round 12, exhaustive) 22 del vars, 92 del conss, 9 add conss, 0 chg bounds, 20 chg sides, 54 chg coeffs, 194 upgd conss, 0 impls, 172 clqs
(round 13, exhaustive) 22 del vars, 95 del conss, 9 add conss, 0 chg bounds, 20 chg sides, 54 chg coeffs, 194 upgd conss, 0 impls, 172 clqs
(round 14, exhaustive) 22 del vars, 97 del conss, 9 add conss, 0 chg bounds, 20 chg sides, 73 chg coeffs, 194 upgd conss, 0 impls, 172 clqs
(round 15, exhaustive) 22 del vars, 99 del conss, 10 add conss, 0 chg bounds, 20 chg sides, 73 chg coeffs, 194 upgd conss, 0 impls, 172 clqs
(round 16, exhaustive) 22 del vars, 99 del conss, 10 add conss, 0 chg bounds, 20 chg sides, 153 chg coeffs, 194 upgd conss, 0 impls, 172 clqs
(round 17, exhaustive) 22 del vars, 100 del conss, 10 add conss, 0 chg bounds, 20 chg sides, 153 chg coeffs, 194 upgd conss, 0 impls, 172 clqs
presolving (18 rounds: 18 fast, 14 medium, 12 exhaustive):
 22 deleted vars, 100 deleted constraints, 10 added constraints, 0 tightened bounds, 0 added holes, 20 changed sides, 153 changed coefficients
 0 implications, 172 cliques
presolved problem has 119 variables (119 bin, 0 int, 0 impl, 0 cont) and 402 constraints
     27 constraints of type <knapsack>
    129 constraints of type <setppc>
      2 constraints of type <orbisack>
      2 constraints of type <orbitope>
      1 constraints of type <symretope>
    241 constraints of type <logicor>
transformed objective value is always integral (scale: 1)
Presolving Time: 0.02

 time | node  | left  |LP iter|LP it/n|mem/heur|mdpt |vars |cons |rows |cuts |sepa|confs|strbr|  dualbound   | primalbound  |  gap   | compl. 
  0.3s|     1 |     0 |  1413 |     - |  8946k |   0 | 119 | 408 | 152 |   0 |  0 | 124 |  22 | 0.000000e+00 |      --      |    Inf | unknown
  0.4s|     1 |     0 |  1436 |     - |  9003k |   0 | 119 | 409 | 152 |   0 |  1 | 125 |  22 |    cutoff    |      --      |   0.00%| unknown
  0.4s|     1 |     0 |  1436 |     - |  9003k |   0 | 119 | 409 | 152 |   0 |  1 | 125 |  22 |    cutoff    |      --      |   0.00%| unknown

SCIP Status        : problem is solved [infeasible]
Solving Time (sec) : 0.37
Solving Nodes      : 1 (total of 2 nodes in 2 runs)
Primal Bound       : +1.00000000000000e+20 (0 solutions)
Dual Bound         : +1.00000000000000e+20
Gap                : 0.00 %
SCIP Status        : problem is solved [infeasible]
Total Time         :       0.38
  solving          :       0.37
  presolving       :       0.02 (included in solving)
  reading          :       0.00
  copying          :       0.01 (3 #copies) (minimal 0.00, maximal 0.00, average 0.00)
Original Problem   :
  Problem name     : model
  Variables        : 162 (162 binary, 0 integer, 0 implicit integer, 0 continuous)
  Constraints      : 162 initial, 162 maximal
  Objective        : minimize, 0 non-zeros (abs.min = 1e+20, abs.max = -1e+20)
Presolved Problem  :
  Problem name     : t_model
  Variables        : 119 (119 binary, 0 integer, 0 implicit integer, 0 continuous)
  Constraints      : 402 initial, 409 maximal
  Objective        : minimize, 0 non-zeros (abs.min = 1e+20, abs.max = -1e+20)
  Nonzeros         : 3701 constraint, 460 clique table
Presolvers         :   ExecTime  SetupTime  Calls  FixedVars   AggrVars   ChgTypes  ChgBounds   AddHoles    DelCons    AddCons   ChgSides   ChgCoefs
  boundshift       :       0.00       0.00      0          0          0          0          0          0          0          0          0          0
  convertinttobin  :       0.00       0.00      0          0          0          0          0          0          0          0          0          0
  domcol           :       0.00       0.00      5          0          0          0          0          0          0          0          0          0
  dualagg          :       0.00       0.00      0          0          0          0          0          0          0          0          0          0
  dualcomp         :       0.00       0.00      0          0          0          0          0          0          0          0          0          0
  dualinfer        :       0.00       0.00      0          0          0          0          0          0          0          0          0          0
  dualsparsify     :       0.00       0.00      1          0          0          0          0          0          0          0          0          0
  gateextraction   :       0.00       0.00     12          0          0          0          0          0         16          8          0          0
  implics          :       0.00       0.00     20          0          0          0          0          0          0          0          0          0
  inttobinary      :       0.00       0.00      0          0          0          0          0          0          0          0          0          0
  qpkktref         :       0.00       0.00      0          0          0          0          0          0          0          0          0          0
  redvub           :       0.00       0.00      0          0          0          0          0          0          0          0          0          0
  sparsify         :       0.00       0.00      2          0          0          0          0          0          0          0          0          0
  stuffing         :       0.00       0.00      0          0          0          0          0          0          0          0          0          0
  trivial          :       0.00       0.00     28         15          0          0          0          0          0          0          0          0
  tworowbnd        :       0.00       0.00      0          0          0          0          0          0          0          0          0          0
  dualfix          :       0.00       0.00     28          0          0          0          0          0          0          0          0          0
  genvbounds       :       0.00       0.00      0          0          0          0          0          0          0          0          0          0
  probing          :       0.01       0.00      4          0          8          0          0          0          0          0          0          0
  pseudoobj        :       0.00       0.00      1          0          0          0          0          0          0          0          0          0
  symmetry         :       0.00       0.00      1          2          0          0          0          0          0          5          0          0
  vbounds          :       0.00       0.00      3          0          3          0          0          0          0          0          0          0
  knapsack         :       0.00       0.00     41          0          0          0          0          0          1          2          3          7
  setppc           :       0.00       0.00     58          0         14          0          0          0         43          0          1          0
  linear           :       0.00       0.00     12          0          0          0          0          0         38          0         17          4
  orbisack         :       0.00       0.00      7          0          0          0          0          0          0          0          0          0
  orbitope         :       0.00       0.00     18          1          0          0          0          0          0          0          0          0
  symretope        :       0.00       0.00      7          0          0          0          0          0          0          0          0          0
  logicor          :       0.00       0.00     36          0          0          0          0          0         21          0          0        142
  benders          :       0.00       0.00      0          0          0          0          0          0          0          0          0          0
  components       :       0.00       0.00      2          0          0          0          0          0          0          0          0          0
  root node        :          -          -      -         61          -          -         61          -          -          -          -          -
Constraints        :     Number  MaxNumber  #Separate #Propagate    #EnfoLP    #EnfoRelax  #EnfoPS    #Check   #ResProp    Cutoffs    DomReds       Cuts    Applied      Conss   Children
  benderslp        :          0          0          0          0          2          0          0          8          0          0          0          0          0          0          0
  integral         :          0          0          0          0          2          0          0          8          0          0          2          0          0          2          2
  knapsack         :         27         27          1        117          0          0          0          0          3          0          0          0          0          0          0
  setppc           :        129        129         18       1408          0          0          0          3        645         45          0          1          1          0          0
  orbisack         :          2          2          0          8          0          0          0          0          7          1          0          0          0          0          0
  orbitope         :          2          2          0       1259          0          0          0          0         23          1          0          0          0          0          0
  symretope        :          1          1          0         53          0          0          0          0         29          0          0          0          0          0          0
  logicor          :        241+       248         18        300          0          0          0          0         44          2          0          0          0          0          0
  benders          :          0          0          0          0          0          0          0          0          0          0          0          0          0          0          0
  countsols        :          0          0          0          0          0          0          0          0          0          0          0          0          0          0          0
  components       :          0          0          0          0          0          0          0          0          0          0          0          0          0          0          0
Constraint Timings :  TotalTime  SetupTime   Separate  Propagate     EnfoLP     EnfoPS     EnfoRelax   Check    ResProp    SB-Prop
  benderslp        :       0.00       0.00       0.00       0.00       0.00       0.00       0.00       0.00       0.00       0.00
  integral         :       0.09       0.00       0.00       0.00       0.09       0.00       0.00       0.00       0.00       0.00
  knapsack         :       0.00       0.00       0.00       0.00       0.00       0.00       0.00       0.00       0.00       0.00
  setppc           :       0.01       0.00       0.00       0.00       0.00       0.00       0.00       0.00       0.00       0.00
  orbisack         :       0.00       0.00       0.00       0.00       0.00       0.00       0.00       0.00       0.00       0.00
  orbitope         :       0.00       0.00       0.00       0.00       0.00       0.00       0.00       0.00       0.00       0.00
  symretope        :       0.00       0.00       0.00       0.00       0.00       0.00       0.00       0.00       0.00       0.00
  logicor          :       0.00       0.00       0.00       0.00       0.00       0.00       0.00       0.00       0.00       0.00
  benders          :       0.00       0.00       0.00       0.00       0.00       0.00       0.00       0.00       0.00       0.00
  countsols        :       0.00       0.00       0.00       0.00       0.00       0.00       0.00       0.00       0.00       0.00
  components       :       0.00       0.00       0.00       0.00       0.00       0.00       0.00       0.00       0.00       0.00
Propagators        : #Propagate   #ResProp    Cutoffs    DomReds
  dualfix          :          4          0          0          0
  genvbounds       :          0          0          0          0
  nlobbt           :          0          0          0          0
  obbt             :          0          0          0          0
  probing          :          0          0          0          0
  pseudoobj        :          0          0          0          0
  redcost          :          0          0          0          0
  rootredcost      :          0          0          0          0
  symmetry         :          0          0          0          0
  vbounds          :        407          0          0          0
Propagator Timings :  TotalTime  SetupTime   Presolve  Propagate    ResProp    SB-Prop
  dualfix          :       0.00       0.00       0.00       0.00       0.00       0.00
  genvbounds       :       0.00       0.00       0.00       0.00       0.00       0.00
  nlobbt           :       0.00       0.00       0.00       0.00       0.00       0.00
  obbt             :       0.00       0.00       0.00       0.00       0.00       0.00
  probing          :       0.01       0.00       0.01       0.00       0.00       0.00
  pseudoobj        :       0.00       0.00       0.00       0.00       0.00       0.00
  redcost          :       0.00       0.00       0.00       0.00       0.00       0.00
  rootredcost      :       0.00       0.00       0.00       0.00       0.00       0.00
  symmetry         :       0.00       0.00       0.00       0.00       0.00       0.00
  vbounds          :       0.00       0.00       0.00       0.00       0.00       0.00
Orbital fixing     :
  vars fixed to 0  :          0
  vars fixed to 1  :          0
Conflict Analysis  :       Time      Calls    Success    DomReds  Conflicts   Literals    Reconvs ReconvLits   Dualrays   Nonzeros   LP Iters   (pool size: [10000,10000])
  propagation      :       0.00         47         47          -        121        7.7          7        6.1          -          -          -
  infeasible LP    :       0.00          2          2          -          7        8.6          0        0.0          1        9.0          0
  bound exceed. LP :       0.00          0          0          -          0        0.0          0        0.0          0        0.0          0
  strong branching :       0.00          0          0          -          0        0.0          0        0.0          -          -          0
  pseudo solution  :       0.00          0          0          -          0        0.0          0        0.0          -          -          -
  applied globally :       0.00          -          -          0        124        6.5          -          -          1          -          -
  applied locally  :          -          -          -          0          0        0.0          -          -          0          -          -
Separators         :   ExecTime  SetupTime      Calls  RootCalls    Cutoffs    DomReds  FoundCuts ViaPoolAdd  DirectAdd    Applied ViaPoolApp  DirectApp      Conss
  cut pool         :       0.01          -         32         32          -          -       1412        840          -          -          -          -          -    (maximal pool size:       1298)
  aggregation      :       0.02       0.00         17         17          0          0          0          0          0          0          0          0          0
  > cmir           :          -          -          -          -          -          -          -          0          0          0          0          0          -
  > flowcover      :          -          -          -          -          -          -          -          0          0          0          0          0          -
  > knapsackcover  :          -          -          -          -          -          -          -          0          0          0          0          0          -
  cgmip            :       0.00       0.00          0          0          0          0          0          0          0          0          0          0          0
  clique           :       0.00       0.00         17         17          0          0          5          5          0          1          1          0          0
  closecuts        :       0.00       0.00          0          0          0          0          0          0          0          0          0          0          0
  convexproj       :       0.00       0.00          0          0          0          0          0          0          0          0          0          0          0
  disjunctive      :       0.00       0.00          0          0          0          0          0          0          0          0          0          0          0
  eccuts           :       0.00       0.00          0          0          0          0          0          0          0          0          0          0          0
  gauge            :       0.00       0.00          0          0          0          0          0          0          0          0          0          0          0
  gomory           :       0.08       0.00         11         11          0          0       1378        809          0         14         14          0          0
  > gomorymi       :          -          -          -          -          -          -          -        411          0          9          9          0          -
  > strongcg       :          -          -          -          -          -          -          -        398          0          5          5          0          -
  impliedbounds    :       0.00       0.00         17         17          0          0          6          5          0          5          5          0          0
  interminor       :       0.00       0.00          0          0          0          0          0          0          0          0          0          0          0
  intobj           :       0.00       0.00          0          0          0          0          0          0          0          0          0          0          0
  mcf              :       0.00       0.00          2          2          0          0          0          0          0          0          0          0          0
  minor            :       0.00       0.00          0          0          0          0          0          0          0          0          0          0          0
  mixing           :       0.00       0.00          0          0          0          0          0          0          0          0          0          0          0
  oddcycle         :       0.00       0.00          0          0          0          0          0          0          0          0          0          0          0
  rapidlearning    :       0.08       0.00          2          2          0         57          0          0          0          0          0          0        200
  rlt              :       0.00       0.00         11         11          0          0          0          0          0          0          0          0          0
  zerohalf         :       0.01       0.00         17         17          0          0         23         21          0         15         15          0          0
Cutselectors       :   ExecTime  SetupTime      Calls  RootCalls   Selected     Forced   Filtered  RootSelec   RootForc   RootFilt 
  hybrid           :       0.00       0.00         15         15         38          0        808         38          0        808
Pricers            :   ExecTime  SetupTime      Calls       Vars
  problem variables:       0.00          -          0          0
Branching Rules    :   ExecTime  SetupTime   BranchLP  BranchExt   BranchPS    Cutoffs    DomReds       Cuts      Conss   Children
  allfullstrong    :       0.00       0.00          0          0          0          0          0          0          0          0
  cloud            :       0.00       0.00          0          0          0          0          0          0          0          0
  distribution     :       0.00       0.00          0          0          0          0          0          0          0          0
  fullstrong       :       0.00       0.00          0          0          0          0          0          0          0          0
  inference        :       0.00       0.00          0          0          0          0          0          0          0          0
  leastinf         :       0.00       0.00          0          0          0          0          0          0          0          0
  lookahead        :       0.00       0.00          0          0          0          0          0          0          0          0
  mostinf          :       0.00       0.00          0          0          0          0          0          0          0          0
  multaggr         :       0.00       0.00          0          0          0          0          0          0          0          0
  nodereopt        :       0.00       0.00          0          0          0          0          0          0          0          0
  pscost           :       0.00       0.00          0          0          0          0          0          0          0          0
  random           :       0.00       0.00          0          0          0          0          0          0          0          0
  relpscost        :       0.09       0.00          2          0          0          0          2          0          2          2
  vanillafullstrong:       0.00       0.00          0          0          0          0          0          0          0          0
Primal Heuristics  :   ExecTime  SetupTime      Calls      Found       Best
  LP solutions     :       0.00          -          -          0          0
  relax solutions  :       0.00          -          -          0          0
  pseudo solutions :       0.00          -          -          0          0
  strong branching :       0.00          -          -          0          0
  actconsdiving    :       0.00       0.00          0          0          0
  adaptivediving   :       0.00       0.00          0          0          0
  alns             :       0.00       0.00          1          0          0
  bound            :       0.00       0.00          0          0          0
  clique           :       0.00       0.00          1          0          0
  coefdiving       :       0.00       0.00          0          0          0
  completesol      :       0.00       0.00          0          0          0
  conflictdiving   :       0.01       0.00          1          0          0
  crossover        :       0.00       0.00          0          0          0
  dins             :       0.00       0.00          0          0          0
  distributiondivin:       0.00       0.00          0          0          0
  dps              :       0.00       0.00          0          0          0
  dualval          :       0.00       0.00          0          0          0
  farkasdiving     :       0.00       0.00          0          0          0
  feaspump         :       0.00       0.00          1          0          0
  fixandinfer      :       0.00       0.00          0          0          0
  fracdiving       :       0.00       0.00          0          0          0
  gins             :       0.00       0.00          0          0          0
  guideddiving     :       0.00       0.00          0          0          0
  indicator        :       0.00       0.00          0          0          0
  intdiving        :       0.00       0.00          0          0          0
  intshifting      :       0.00       0.00          0          0          0
  linesearchdiving :       0.00       0.00          0          0          0
  localbranching   :       0.00       0.00          0          0          0
  locks            :       0.00       0.00          1          0          0
  lpface           :       0.00       0.00          0          0          0
  mpec             :       0.00       0.00          0          0          0
  multistart       :       0.00       0.00          0          0          0
  mutation         :       0.00       0.00          0          0          0
  nlpdiving        :       0.00       0.00          0          0          0
  objpscostdiving  :       0.00       0.00          0          0          0
  octane           :       0.00       0.00          0          0          0
  ofins            :       0.00       0.00          0          0          0
  oneopt           :       0.00       0.00          0          0          0
  padm             :       0.00       0.00          0          0          0
  proximity        :       0.00       0.00          0          0          0
  pscostdiving     :       0.00       0.00          0          0          0
  randrounding     :       0.01       0.00         19          0          0
  rens             :       0.00       0.00          0          0          0
  reoptsols        :       0.00       0.00          0          0          0
  repair           :       0.00       0.00          0          0          0
  rins             :       0.00       0.00          0          0          0
  rootsoldiving    :       0.00       0.00          0          0          0
  rounding         :       0.00       0.00         19          0          0
  shiftandpropagate:       0.00       0.00          2          0          0
  shifting         :       0.00       0.00         19          0          0
  simplerounding   :       0.00       0.00          0          0          0
  subnlp           :       0.00       0.00          0          0          0
  trivial          :       0.00       0.00          2          0          0
  trivialnegation  :       0.00       0.00          0          0          0
  trustregion      :       0.00       0.00          0          0          0
  trysol           :       0.00       0.00          0          0          0
  twoopt           :       0.00       0.00          0          0          0
  undercover       :       0.00       0.00          0          0          0
  vbounds          :       0.00       0.00          2          0          0
  veclendiving     :       0.00       0.00          0          0          0
  zeroobj          :       0.00       0.00          0          0          0
  zirounding       :       0.00       0.00          1          0          0
  other solutions  :          -          -          -          0          -
LP                 :       Time      Calls Iterations  Iter/call   Iter/sec  Time-0-It Calls-0-It    ItLimit
  primal LP        :       0.00          2          0       0.00          -       0.00          2
  dual LP          :       0.02         20       1098      57.79   45390.66       0.00          1
  lex dual LP      :       0.00          0          0       0.00          -
  barrier LP       :       0.00          0          0       0.00          -       0.00          0
  resolve instable :       0.00          0          0       0.00          -
  diving/probing LP:       0.01         14        338      24.14          -
  strong branching :       0.08         22       3763     171.05   45785.27          -          -          0
    (at root node) :          -         22       3763     171.05          -
  conflict analysis:       0.00          0          0       0.00          -
B&B Tree           :
  number of runs   :          2
  nodes            :          1 (0 internal, 1 leaves)
  feasible leaves  :          0
  infeas. leaves   :          0
  objective leaves :          0
  nodes (total)    :          2 (1 internal, 1 leaves)
  nodes left       :          0
  max depth        :          0
  max depth (total):          0
  backtracks       :          0 (0.0%)
  early backtracks :          0 (0.0%)
  nodes exc. ref.  :          0 (0.0%)
  delayed cutoffs  :          0
  repropagations   :          0 (0 domain reductions, 0 cutoffs)
  avg switch length:       2.00
  switching time   :       0.00
Root Node          :
  First LP value   : +0.00000000000000e+00
  First LP Iters   :        109 (49522.94 Iter/sec)
  First LP Time    :       0.00
  Final Dual Bound :          -
  Final Root Iters :       1215
  Root LP Estimate :                     -
Solution           :
  Solutions found  :          0 (0 improvements)
  Primal Bound     : infeasible
  Dual Bound       :          -
  Gap              :       0.00 %
Integrals          :      Total       Avg%
  primal-dual      :          -          - (problem infeasible)
  primal-ref       :          -          - (problem infeasible)
  dual-ref         :          -          - (problem infeasible)
written solution information to file <results/final_flowersnark__settings_final_peek_relabel_respect__4__flowersnark9_3.cip.sol>
@04 1668021580
